solution status: optimal solution found
objective value:                     194503.148142858
d11(0,0)                                            1 	(obj:0)
d11(1,1)                                            1 	(obj:0)
d11(2,3)                                            1 	(obj:0)
d11(2,4)                                            1 	(obj:0)
d11(2,5)                                            1 	(obj:0)
d11(2,6)                                            1 	(obj:0)
d11(3,7)                                            1 	(obj:0)
d11(3,9)                                            1 	(obj:0)
d11(3,11)                                           1 	(obj:0)
d11(3,12)                                           1 	(obj:0)
d11(3,13)                                           1 	(obj:0)
d11(4,15)                                           1 	(obj:0)
d11(4,21)                                           1 	(obj:0)
d11(4,29)                                           1 	(obj:0)
d11(5,31)                                           1 	(obj:0)
d11(5,32)                                           1 	(obj:0)
d11(5,33)                                           1 	(obj:0)
d11(5,35)                                           1 	(obj:0)
d11(5,36)                                           1 	(obj:0)
d11(5,37)                                           1 	(obj:0)
d11(5,39)                                           1 	(obj:0)
d11(5,40)                                           1 	(obj:0)
d11(5,41)                                           1 	(obj:0)
d11(5,42)                                           1 	(obj:0)
d11(5,43)                                           1 	(obj:0)
d11(5,44)                                           1 	(obj:0)
d11(5,45)                                           1 	(obj:0)
d11(5,46)                                           1 	(obj:0)
d11(5,47)                                           1 	(obj:0)
d11(5,49)                                           1 	(obj:0)
d11(5,51)                                           1 	(obj:0)
d11(5,52)                                           1 	(obj:0)
d11(5,53)                                           1 	(obj:0)
d11(5,54)                                           1 	(obj:0)
d11(5,55)                                           1 	(obj:0)
d11(5,56)                                           1 	(obj:0)
d11(5,57)                                           1 	(obj:0)
d11(5,58)                                           1 	(obj:0)
d11(5,59)                                           1 	(obj:0)
d11(5,60)                                           1 	(obj:0)
d11(5,61)                                           1 	(obj:0)
d11(5,62)                                           1 	(obj:0)
d12(1,2)                                            1 	(obj:0)
d12(4,16)                                           1 	(obj:0)
d12(4,18)                                           1 	(obj:0)
d12(4,20)                                           1 	(obj:0)
d12(4,22)                                           1 	(obj:0)
d12(4,24)                                           1 	(obj:0)
d12(4,26)                                           1 	(obj:0)
d12(4,28)                                           1 	(obj:0)
d12(4,30)                                           1 	(obj:0)
d21(4,15)                                           1 	(obj:0)
d21(5,31)                                           1 	(obj:0)
d21(5,32)                                           1 	(obj:0)
d21(5,33)                                           1 	(obj:0)
d21(5,34)                                           1 	(obj:0)
d21(5,35)                                           1 	(obj:0)
d21(5,37)                                           1 	(obj:0)
d21(5,39)                                           1 	(obj:0)
d21(5,40)                                           1 	(obj:0)
d21(5,41)                                           1 	(obj:0)
d21(5,43)                                           1 	(obj:0)
d21(5,47)                                           1 	(obj:0)
d21(5,48)                                           1 	(obj:0)
d21(5,49)                                           1 	(obj:0)
d21(5,51)                                           1 	(obj:0)
d21(5,55)                                           1 	(obj:0)
STE(1,1)                                        10143 	(obj:0)
STE(0,0)                                        11025 	(obj:0)
STE(1,2)                             11459.2140858765 	(obj:0)
STE(2,3)                                       5953.5 	(obj:0)
STE(2,4)                             7611.74989888882 	(obj:0)
STE(2,5)                             7269.71408587646 	(obj:0)
STE(2,6)                             8927.96398476528 	(obj:0)
STE(3,7)                             3413.25010111118 	(obj:0)
STE(3,8)                                       5071.5 	(obj:0)
STE(3,9)                                       5071.5 	(obj:0)
STE(3,10)                            6729.74989888882 	(obj:0)
STE(3,11)                            4729.46418698764 	(obj:0)
STE(3,12)                            6387.71408587646 	(obj:0)
STE(3,13)                            6387.71408587646 	(obj:0)
STE(3,14)                            8045.96398476528 	(obj:0)
STE(4,15)                            2531.25010111118 	(obj:0)
STE(4,16)                            3847.46418698767 	(obj:0)
STE(4,17)                                      4189.5 	(obj:0)
STE(4,18)                            5505.71408587649 	(obj:0)
STE(4,19)                                      4189.5 	(obj:0)
STE(4,20)                            5505.71408587649 	(obj:0)
STE(4,21)                            5847.74989888882 	(obj:0)
STE(4,22)                             7163.9639847653 	(obj:0)
STE(4,23)                            3847.46418698764 	(obj:0)
STE(4,24)                            5163.67827286413 	(obj:0)
STE(4,25)                            5505.71408587646 	(obj:0)
STE(4,26)                            6821.92817175295 	(obj:0)
STE(4,27)                            5505.71408587646 	(obj:0)
STE(4,28)                            6821.92817175295 	(obj:0)
STE(4,29)                            7163.96398476528 	(obj:0)
STE(4,30)                            8480.17807064176 	(obj:0)
STE(5,31)                           -8.99979777766339 	(obj:0)
STE(5,32)                            1649.25010111118 	(obj:0)
STE(5,33)                            1307.21428809882 	(obj:0)
STE(5,34)                            2965.46418698767 	(obj:0)
STE(5,35)                            1649.25010111115 	(obj:0)
STE(5,36)                                      3307.5 	(obj:0)
STE(5,37)                            2965.46418698764 	(obj:0)
STE(5,38)                            4623.71408587649 	(obj:0)
STE(5,39)                            1649.25010111115 	(obj:0)
STE(5,40)                                      3307.5 	(obj:0)
STE(5,41)                            2965.46418698764 	(obj:0)
STE(5,42)                            4623.71408587649 	(obj:0)
STE(5,43)                            3307.49999999997 	(obj:0)
STE(5,44)                            4965.74989888882 	(obj:0)
STE(5,45)                            4623.71408587646 	(obj:0)
STE(5,46)                             6281.9639847653 	(obj:0)
STE(5,47)                             1307.2142880988 	(obj:0)
STE(5,48)                            2965.46418698764 	(obj:0)
STE(5,49)                            2623.42837397528 	(obj:0)
STE(5,50)                            4281.67827286413 	(obj:0)
STE(5,51)                            2965.46418698761 	(obj:0)
STE(5,52)                            4623.71408587646 	(obj:0)
STE(5,53)                             4281.6782728641 	(obj:0)
STE(5,54)                            5939.92817175295 	(obj:0)
STE(5,55)                            2965.46418698762 	(obj:0)
STE(5,56)                            4623.71408587646 	(obj:0)
STE(5,57)                             4281.6782728641 	(obj:0)
STE(5,58)                            5939.92817175295 	(obj:0)
STE(5,59)                            4623.71408587643 	(obj:0)
STE(5,60)                            6281.96398476528 	(obj:0)
STE(5,61)                            5939.92817175292 	(obj:0)
STE(5,62)                            7598.17807064176 	(obj:0)
y1(5,39)                             1492.42490899996 	(obj:0)
y1(5,41)                             1492.42490899996 	(obj:0)
y1(5,43)                             1492.42490899996 	(obj:0)
y1(5,45)                             1492.42490899996 	(obj:0)
y1(5,47)                             1492.42490899996 	(obj:0)
y1(5,49)                             1492.42490899996 	(obj:0)
y1(5,51)                             1492.42490899996 	(obj:0)
y1(5,53)                             1492.42490899996 	(obj:0)
y1(5,55)                             1492.42490899996 	(obj:0)
y1(5,57)                             1492.42490899996 	(obj:0)
y1(5,59)                             1492.42490899996 	(obj:0)
y1(5,61)                             1492.42490899996 	(obj:0)
WB(1)                                543.501764824447 	(obj:0)
AVE(1)                                   3216.9117036 	(obj:0)
WB(2)                                    3366.1541945 	(obj:0)
AVE(2)                                   3366.1541945 	(obj:0)
WB(3)                               0.104186420435326 	(obj:0)
AVE(3)                                   3515.3966854 	(obj:0)
WB(4)                                 841.98412668273 	(obj:0)
AVE(4)                               3515.39406545826 	(obj:0)
WB(5)                               0.861360453679026 	(obj:0)
AVE(5)                               3167.15385943327 	(obj:0)
WG(1)                                2673.40993877555 	(obj:10)
WG(3)                                3515.29249897956 	(obj:10)
WG(4)                                2673.40993877553 	(obj:10)
WG(5)                                3166.29249897959 	(obj:10)
BG(2)                                5710.90993877555 	(obj:10)
BG(3)                                             681 	(obj:10)
BG(5)                                            1030 	(obj:10)
y1(2,3)                                       2976.75 	(obj:0)
y1(2,4)                              1484.32509100006 	(obj:0)
y1(2,5)                                       2976.75 	(obj:0)
y1(2,6)                              1484.32509100006 	(obj:0)
y1(3,7)                              1492.42490899994 	(obj:0)
y1(3,9)                              1492.42490899994 	(obj:0)
y1(3,11)                             1492.42490899994 	(obj:0)
y1(3,13)                             1492.42490899994 	(obj:0)
y1(5,31)                             1492.42490899996 	(obj:0)
y1(5,33)                             1492.42490899996 	(obj:0)
y1(5,35)                             1492.42490899996 	(obj:0)
y1(5,37)                             1492.42490899996 	(obj:0)
y2(1,2)                               1385.4885114489 	(obj:0)
y2(4,16)                             1385.48851144893 	(obj:0)
y2(4,18)                             1385.48851144893 	(obj:0)
y2(4,20)                             1385.48851144893 	(obj:0)
y2(4,22)                             1385.48851144893 	(obj:0)
y2(4,24)                             1385.48851144893 	(obj:0)
y2(4,26)                             1385.48851144893 	(obj:0)
y2(4,28)                             1385.48851144893 	(obj:0)
y2(4,30)                             1385.48851144893 	(obj:0)
